c Random Network
p max    10      20
n         1  s
n        10  t
a       2       7      34
a      10       3       6
a       1       2      47
a       3      10      16
a       2       1      42
a       1       7      12
a      10       7      24
a       6       1       7
a       7       1      41
a       3       2      45
a       3       1       1
a       6       5      26
a       6       8       3
a       1       4      50
a       3       6      31
a       9       7      47
a       6       3      29
a       7       9      29
a       5       1      35
a       4       8      30
